benchmarks_vrp/CMT4/min_c/CMT4_8.vrp
NAME: CMT4_8
TYPE: CVRP
COMMENT: 1028.42 - Cluster Nr.8
DIMENSION: 12
CAPACITY: 200
EDGE_WEIGHT_TYPE: EUC_2D
NODE_COORD_TYPE: TWOD_COORDS
NODE_COORD_SECTION: 
12 55 60
9 57 58
3 49 58
1 53 52
2 45 65
10 52 64
11 61 52
6 49 49
4 35 35
5 65 55
7 43 67
8 55 54
DEPOT_SECTION: 
4
-1
DEMAND_SECTION: 
3 10
7 14
12 16
8 26
4 0
6 30
1 11
5 14
11 3
10 16
2 9
9 28
EOF
