benchmarks_vrp/CMT4/min_c/CMT4_8.tour
NAME: CMT4_8 solution
TYPE: TOUR
TOUR_SECTION:
4 3 2 7 10 12 9 5 11 8 1 6 -1
-1
EOF